TCS_Benchmarks/redos_fix/snort3_output_distinct_3305_3304_80_0.txt
([^>]*)(\s*)
([^>]*)(type\s*=\s*["'])(\s*)